Second Year - 2020-2021/First Semester/Algorithm Analysis/Homework 2/sat_in/bonus/30.wcnf
p wcnf 17 68 817
817 1 2 0
817 1 5 0
817 1 6 0
817 1 7 0
817 1 16 0
817 1 17 0
817 2 4 0
817 2 8 0
817 2 9 0
817 2 11 0
817 2 13 0
817 2 16 0
817 3 4 0
817 3 6 0
817 3 10 0
817 3 15 0
817 3 16 0
817 3 17 0
817 4 6 0
817 4 9 0
817 4 12 0
817 4 14 0
817 5 6 0
817 5 9 0
817 5 10 0
817 5 13 0
817 5 15 0
817 5 16 0
817 5 17 0
817 6 7 0
817 6 9 0
817 6 12 0
817 7 13 0
817 7 16 0
817 8 10 0
817 8 12 0
817 8 14 0
817 8 15 0
817 8 16 0
817 9 17 0
817 10 11 0
817 10 12 0
817 10 14 0
817 10 16 0
817 10 17 0
817 11 13 0
817 11 14 0
817 12 13 0
817 12 16 0
817 14 17 0
817 15 16 0
45 -1 0
45 -2 0
45 -3 0
47 -4 0
44 -5 0
48 -6 0
49 -7 0
46 -8 0
50 -9 0
46 -10 0
49 -11 0
49 -12 0
51 -13 0
50 -14 0
50 -15 0
51 -16 0
51 -17 0
