Second Year/First Semester/Algorithm Analysis/Homework 2/out/task2/30.out
True
1 2 3 5 15 30 